
  22   10
  10   10   10   10   10   10   10   10   10   10

   0   0   0   0   0   0   0   0   0   0   0   5 2 3 4 6 21 
   9   0   0   0   0   0  10   0   0   0   0   3 16 15 5 
   5   0   0   0   0   0   0   0   0   0  10   3 16 15 7 
   4   0   0   0   0   0   0  10   0   0   0   3 16 10 9 
   8   0   0   0   0   0   0   0  10   0   0   1 7 
   8   0   0   0   0   0   0   0  10   0   0   2 15 9 
   5   0   0   0   0   0   0   0   0   0  10   1 8 
   4   0   0   0  10   0   0   0   0   0   0   1 9 
  10   0   0   0   0   0   0   0   0  10   0   2 20 11 
   3   0   0   0   0   0   0   0  10   0   0   2 15 11 
   3   0   0  10   0   0   0   0   0   0   0   2 19 12 
  10   0  10   0   0   0   0   0   0   0   0   2 18 13 
   9   0  10   0   0   0   0   0   0   0   0   1 14 
   1   0   0   0   0   0   0   0  10   0   0   1 17 
   3  10   0   0   0   0   0   0   0   0   0   1 17 
   3   0   0   0   0   0   0  10   0   0   0   1 17 
   2  10   0   0   0   0   0   0   0   0   0   1 22
   1   0  10   0   0   0   0   0   0   0   0   1 22
   7   0   0   0   0   0   0   0  10   0   0   1 22
   4   0   0   0   0   0   0   0  10   0   0   1 22
   2   0   0   0   0   0   0   0   0   0  10   1 22
   0   0   0   0   0   0   0   0   0   0   0   0 
